40
    49    59    92    74    44    16    70    11    16    11     3     4    65    80    43    50    20     9    18    52    35    40    37    16    96    68    85    49    14    39    25    63    29    55   100    73    11    68    30    97
     1     9     2    10     8     8     4    10     5     1     5     6     9     8     7     9     2     6     3     9     7     8     1     9     6     3     3     2     7     6     3     2     9     8    10     4     6     5     5     3
   437   311   882   962     0     0   410   619   899   691   625     0     0     0   631   137   493   411    39   157     0   521   635     0   395   909    84   790    62   936   860     0   736   495  1040     0   607  1050   337     0
